68
150
119	1
117	1
116	1
114	1
113	3
111	1
108	1
107	2
105	2
103	1
102	1
99	1
98	1
97	3
96	1
94	2
91	2
90	1
89	4
88	2
87	1
86	2
82	2
81	2
80	2
79	2
77	2
76	1
75	1
74	1
73	2
72	2
68	1
66	1
62	1
61	1
60	1
59	1
57	3
56	2
54	1
52	1
51	2
48	1
47	1
46	1
45	1
44	1
43	1
42	1
41	2
40	1
39	1
38	4
36	2
35	1
33	1
32	3
29	2
26	1
25	1
24	1
22	1
20	1
18	1
17	1
16	1
15	1
